certificates/rado_a5_c297_N58.cnf
c Rad2 upper bound instance: x1 + 5*x2 - x3 = 297, interval [1,58]
p cnf 58 572
1 8 58 0
-1 -8 -58 0
2 9 58 0
-2 -9 -58 0
3 10 58 0
-3 -10 -58 0
4 11 58 0
-4 -11 -58 0
5 12 58 0
-5 -12 -58 0
1 13 57 0
-1 -13 -57 0
6 13 58 0
-6 -13 -58 0
2 14 57 0
-2 -14 -57 0
7 14 58 0
-7 -14 -58 0
3 15 57 0
-3 -15 -57 0
8 15 58 0
-8 -15 -58 0
4 16 57 0
-4 -16 -57 0
9 16 58 0
-9 -16 -58 0
5 17 57 0
-5 -17 -57 0
10 17 58 0
-10 -17 -58 0
1 18 56 0
-1 -18 -56 0
6 18 57 0
-6 -18 -57 0
11 18 58 0
-11 -18 -58 0
2 19 56 0
-2 -19 -56 0
7 19 57 0
-7 -19 -57 0
12 19 58 0
-12 -19 -58 0
3 20 56 0
-3 -20 -56 0
8 20 57 0
-8 -20 -57 0
13 20 58 0
-13 -20 -58 0
4 21 56 0
-4 -21 -56 0
9 21 57 0
-9 -21 -57 0
14 21 58 0
-14 -21 -58 0
5 22 56 0
-5 -22 -56 0
10 22 57 0
-10 -22 -57 0
15 22 58 0
-15 -22 -58 0
1 23 55 0
-1 -23 -55 0
6 23 56 0
-6 -23 -56 0
11 23 57 0
-11 -23 -57 0
16 23 58 0
-16 -23 -58 0
2 24 55 0
-2 -24 -55 0
7 24 56 0
-7 -24 -56 0
12 24 57 0
-12 -24 -57 0
17 24 58 0
-17 -24 -58 0
3 25 55 0
-3 -25 -55 0
8 25 56 0
-8 -25 -56 0
13 25 57 0
-13 -25 -57 0
18 25 58 0
-18 -25 -58 0
4 26 55 0
-4 -26 -55 0
9 26 56 0
-9 -26 -56 0
14 26 57 0
-14 -26 -57 0
19 26 58 0
-19 -26 -58 0
5 27 55 0
-5 -27 -55 0
10 27 56 0
-10 -27 -56 0
15 27 57 0
-15 -27 -57 0
20 27 58 0
-20 -27 -58 0
1 28 54 0
-1 -28 -54 0
6 28 55 0
-6 -28 -55 0
11 28 56 0
-11 -28 -56 0
16 28 57 0
-16 -28 -57 0
21 28 58 0
-21 -28 -58 0
2 29 54 0
-2 -29 -54 0
7 29 55 0
-7 -29 -55 0
12 29 56 0
-12 -29 -56 0
17 29 57 0
-17 -29 -57 0
22 29 58 0
-22 -29 -58 0
3 30 54 0
-3 -30 -54 0
8 30 55 0
-8 -30 -55 0
13 30 56 0
-13 -30 -56 0
18 30 57 0
-18 -30 -57 0
23 30 58 0
-23 -30 -58 0
4 31 54 0
-4 -31 -54 0
9 31 55 0
-9 -31 -55 0
14 31 56 0
-14 -31 -56 0
19 31 57 0
-19 -31 -57 0
24 31 58 0
-24 -31 -58 0
5 32 54 0
-5 -32 -54 0
10 32 55 0
-10 -32 -55 0
15 32 56 0
-15 -32 -56 0
20 32 57 0
-20 -32 -57 0
25 32 58 0
-25 -32 -58 0
1 33 53 0
-1 -33 -53 0
6 33 54 0
-6 -33 -54 0
11 33 55 0
-11 -33 -55 0
16 33 56 0
-16 -33 -56 0
21 33 57 0
-21 -33 -57 0
26 33 58 0
-26 -33 -58 0
2 34 53 0
-2 -34 -53 0
7 34 54 0
-7 -34 -54 0
12 34 55 0
-12 -34 -55 0
17 34 56 0
-17 -34 -56 0
22 34 57 0
-22 -34 -57 0
27 34 58 0
-27 -34 -58 0
3 35 53 0
-3 -35 -53 0
8 35 54 0
-8 -35 -54 0
13 35 55 0
-13 -35 -55 0
18 35 56 0
-18 -35 -56 0
23 35 57 0
-23 -35 -57 0
28 35 58 0
-28 -35 -58 0
4 36 53 0
-4 -36 -53 0
9 36 54 0
-9 -36 -54 0
14 36 55 0
-14 -36 -55 0
19 36 56 0
-19 -36 -56 0
24 36 57 0
-24 -36 -57 0
29 36 58 0
-29 -36 -58 0
5 37 53 0
-5 -37 -53 0
10 37 54 0
-10 -37 -54 0
15 37 55 0
-15 -37 -55 0
20 37 56 0
-20 -37 -56 0
25 37 57 0
-25 -37 -57 0
30 37 58 0
-30 -37 -58 0
1 38 52 0
-1 -38 -52 0
6 38 53 0
-6 -38 -53 0
11 38 54 0
-11 -38 -54 0
16 38 55 0
-16 -38 -55 0
21 38 56 0
-21 -38 -56 0
26 38 57 0
-26 -38 -57 0
31 38 58 0
-31 -38 -58 0
2 39 52 0
-2 -39 -52 0
7 39 53 0
-7 -39 -53 0
12 39 54 0
-12 -39 -54 0
17 39 55 0
-17 -39 -55 0
22 39 56 0
-22 -39 -56 0
27 39 57 0
-27 -39 -57 0
32 39 58 0
-32 -39 -58 0
3 40 52 0
-3 -40 -52 0
8 40 53 0
-8 -40 -53 0
13 40 54 0
-13 -40 -54 0
18 40 55 0
-18 -40 -55 0
23 40 56 0
-23 -40 -56 0
28 40 57 0
-28 -40 -57 0
33 40 58 0
-33 -40 -58 0
4 41 52 0
-4 -41 -52 0
9 41 53 0
-9 -41 -53 0
14 41 54 0
-14 -41 -54 0
19 41 55 0
-19 -41 -55 0
24 41 56 0
-24 -41 -56 0
29 41 57 0
-29 -41 -57 0
34 41 58 0
-34 -41 -58 0
5 42 52 0
-5 -42 -52 0
10 42 53 0
-10 -42 -53 0
15 42 54 0
-15 -42 -54 0
20 42 55 0
-20 -42 -55 0
25 42 56 0
-25 -42 -56 0
30 42 57 0
-30 -42 -57 0
35 42 58 0
-35 -42 -58 0
1 43 51 0
-1 -43 -51 0
6 43 52 0
-6 -43 -52 0
11 43 53 0
-11 -43 -53 0
16 43 54 0
-16 -43 -54 0
21 43 55 0
-21 -43 -55 0
26 43 56 0
-26 -43 -56 0
31 43 57 0
-31 -43 -57 0
36 43 58 0
-36 -43 -58 0
2 44 51 0
-2 -44 -51 0
7 44 52 0
-7 -44 -52 0
12 44 53 0
-12 -44 -53 0
17 44 54 0
-17 -44 -54 0
22 44 55 0
-22 -44 -55 0
27 44 56 0
-27 -44 -56 0
32 44 57 0
-32 -44 -57 0
37 44 58 0
-37 -44 -58 0
3 45 51 0
-3 -45 -51 0
8 45 52 0
-8 -45 -52 0
13 45 53 0
-13 -45 -53 0
18 45 54 0
-18 -45 -54 0
23 45 55 0
-23 -45 -55 0
28 45 56 0
-28 -45 -56 0
33 45 57 0
-33 -45 -57 0
38 45 58 0
-38 -45 -58 0
4 46 51 0
-4 -46 -51 0
9 46 52 0
-9 -46 -52 0
14 46 53 0
-14 -46 -53 0
19 46 54 0
-19 -46 -54 0
24 46 55 0
-24 -46 -55 0
29 46 56 0
-29 -46 -56 0
34 46 57 0
-34 -46 -57 0
39 46 58 0
-39 -46 -58 0
5 47 51 0
-5 -47 -51 0
10 47 52 0
-10 -47 -52 0
15 47 53 0
-15 -47 -53 0
20 47 54 0
-20 -47 -54 0
25 47 55 0
-25 -47 -55 0
30 47 56 0
-30 -47 -56 0
35 47 57 0
-35 -47 -57 0
40 47 58 0
-40 -47 -58 0
1 48 50 0
-1 -48 -50 0
6 48 51 0
-6 -48 -51 0
11 48 52 0
-11 -48 -52 0
16 48 53 0
-16 -48 -53 0
21 48 54 0
-21 -48 -54 0
26 48 55 0
-26 -48 -55 0
31 48 56 0
-31 -48 -56 0
36 48 57 0
-36 -48 -57 0
41 48 58 0
-41 -48 -58 0
2 49 50 0
-2 -49 -50 0
7 49 51 0
-7 -49 -51 0
12 49 52 0
-12 -49 -52 0
17 49 53 0
-17 -49 -53 0
22 49 54 0
-22 -49 -54 0
27 49 55 0
-27 -49 -55 0
32 49 56 0
-32 -49 -56 0
37 49 57 0
-37 -49 -57 0
42 49 58 0
-42 -49 -58 0
3 50 0
-3 -50 0
8 50 51 0
-8 -50 -51 0
13 50 52 0
-13 -50 -52 0
18 50 53 0
-18 -50 -53 0
23 50 54 0
-23 -50 -54 0
28 50 55 0
-28 -50 -55 0
33 50 56 0
-33 -50 -56 0
38 50 57 0
-38 -50 -57 0
43 50 58 0
-43 -50 -58 0
4 50 51 0
-4 -50 -51 0
9 51 0
-9 -51 0
14 51 52 0
-14 -51 -52 0
19 51 53 0
-19 -51 -53 0
24 51 54 0
-24 -51 -54 0
29 51 55 0
-29 -51 -55 0
34 51 56 0
-34 -51 -56 0
39 51 57 0
-39 -51 -57 0
44 51 58 0
-44 -51 -58 0
5 50 52 0
-5 -50 -52 0
10 51 52 0
-10 -51 -52 0
15 52 0
-15 -52 0
20 52 53 0
-20 -52 -53 0
25 52 54 0
-25 -52 -54 0
30 52 55 0
-30 -52 -55 0
35 52 56 0
-35 -52 -56 0
40 52 57 0
-40 -52 -57 0
45 52 58 0
-45 -52 -58 0
1 49 53 0
-1 -49 -53 0
6 50 53 0
-6 -50 -53 0
11 51 53 0
-11 -51 -53 0
16 52 53 0
-16 -52 -53 0
21 53 0
-21 -53 0
26 53 54 0
-26 -53 -54 0
31 53 55 0
-31 -53 -55 0
36 53 56 0
-36 -53 -56 0
41 53 57 0
-41 -53 -57 0
46 53 58 0
-46 -53 -58 0
2 49 54 0
-2 -49 -54 0
7 50 54 0
-7 -50 -54 0
12 51 54 0
-12 -51 -54 0
17 52 54 0
-17 -52 -54 0
22 53 54 0
-22 -53 -54 0
27 54 0
-27 -54 0
32 54 55 0
-32 -54 -55 0
37 54 56 0
-37 -54 -56 0
42 54 57 0
-42 -54 -57 0
47 54 58 0
-47 -54 -58 0
3 49 55 0
-3 -49 -55 0
8 50 55 0
-8 -50 -55 0
13 51 55 0
-13 -51 -55 0
18 52 55 0
-18 -52 -55 0
23 53 55 0
-23 -53 -55 0
28 54 55 0
-28 -54 -55 0
33 55 0
-33 -55 0
38 55 56 0
-38 -55 -56 0
43 55 57 0
-43 -55 -57 0
48 55 58 0
-48 -55 -58 0
4 49 56 0
-4 -49 -56 0
9 50 56 0
-9 -50 -56 0
14 51 56 0
-14 -51 -56 0
19 52 56 0
-19 -52 -56 0
24 53 56 0
-24 -53 -56 0
29 54 56 0
-29 -54 -56 0
34 55 56 0
-34 -55 -56 0
39 56 0
-39 -56 0
44 56 57 0
-44 -56 -57 0
49 56 58 0
-49 -56 -58 0
5 49 57 0
-5 -49 -57 0
10 50 57 0
-10 -50 -57 0
15 51 57 0
-15 -51 -57 0
20 52 57 0
-20 -52 -57 0
25 53 57 0
-25 -53 -57 0
30 54 57 0
-30 -54 -57 0
35 55 57 0
-35 -55 -57 0
40 56 57 0
-40 -56 -57 0
45 57 0
-45 -57 0
50 57 58 0
-50 -57 -58 0
1 48 58 0
-1 -48 -58 0
6 49 58 0
-6 -49 -58 0
11 50 58 0
-11 -50 -58 0
16 51 58 0
-16 -51 -58 0
21 52 58 0
-21 -52 -58 0
26 53 58 0
-26 -53 -58 0
31 54 58 0
-31 -54 -58 0
36 55 58 0
-36 -55 -58 0
41 56 58 0
-41 -56 -58 0
46 57 58 0
-46 -57 -58 0
51 58 0
-51 -58 0
