certificates/rado_a5_c297_N58.drat
-57 -58 0
-58 0
51 0
-9 0
2 0
16 0
-44 0
37 0
57 0
-45 0
-14 0
-4 0
-39 0
-15 0
-28 0
-25 0
-49 0
38 0
52 0
7 0
21 0
11 0
32 0
46 0
56 0
8 0
22 0
35 0
18 0
42 0
6 0
-53 0
-55 0
0
